succeed=True
[CUDA] cuda: usage: 5.68 GB
0 :  {link #0 : 1}, {link #1 : 2}, {link #2 : 3},
1 :  {link #0 : 2}, {link #1 : 3}, {link #2 : 0},
2 :  {link #0 : 3}, {link #1 : 0}, {link #2 : 1},
3 :  {link #0 : 0}, {link #1 : 1}, {link #2 : 2},
0 :  {link #0 : 1}, {link #1 : 2}, {link #2 : 3},
1 :  {link #0 : 2}, {link #1 : 3}, {link #2 : 0},
2 :  {link #0 : 3}, {link #1 : 0}, {link #2 : 1},
3 :  {link #0 : 0}, {link #1 : 1}, {link #2 : 2},
0 :  {link #0 : 1}, {link #1 : 2}, {link #2 : 3},
1 :  {link #0 : 2}, {link #1 : 3}, {link #2 : 0},
2 :  {link #0 : 3}, {link #1 : 0}, {link #2 : 1},
3 :  {link #0 : 0}, {link #1 : 1}, {link #2 : 2},
0 : local 80, cpu 0 {link #0 : g1 0}, {link #1 : g2 0}, {link #2 : g3 0},
1 : local 80, cpu 0 {link #0 : g2 0}, {link #1 : g3 0}, {link #2 : g0 0},
2 : local 80, cpu 0 {link #0 : g3 0}, {link #1 : g0 0}, {link #2 : g1 0},
3 : local 80, cpu 0 {link #0 : g0 0}, {link #1 : g1 0}, {link #2 : g2 0},
0 : local 80, cpu 0 {link #0 : g1 0}, {link #1 : g2 0}, {link #2 : g3 0},
1 : local 80, cpu 0 {link #0 : g2 0}, {link #1 : g3 0}, {link #2 : g0 0},
2 : local 80, cpu 0 {link #0 : g3 0}, {link #1 : g0 0}, {link #2 : g1 0},
3 : local 80, cpu 0 {link #0 : g0 0}, {link #1 : g1 0}, {link #2 : g2 0},
0 : local 80, cpu 0 {link #0 : g1 0}, {link #1 : g2 0}, {link #2 : g3 0},
1 : local 80, cpu 0 {link #0 : g2 0}, {link #1 : g3 0}, {link #2 : g0 0},
2 : local 80, cpu 0 {link #0 : g3 0}, {link #1 : g0 0}, {link #2 : g1 0},
3 : local 80, cpu 0 {link #0 : g0 0}, {link #1 : g1 0}, {link #2 : g2 0},
0 :  {link #0 : 1}, {link #1 : 2}, {link #2 : 3},
1 :  {link #0 : 2}, {link #1 : 3}, {link #2 : 0},
2 :  {link #0 : 3}, {link #1 : 0}, {link #2 : 1},
3 :  {link #0 : 0}, {link #1 : 1}, {link #2 : 2},
0 : local 80, cpu 0 {link #0 : g1 0}, {link #1 : g2 0}, {link #2 : g3 0},
1 : local 80, cpu 0 {link #0 : g2 0}, {link #1 : g3 0}, {link #2 : g0 0},
2 : local 80, cpu 0 {link #0 : g3 0}, {link #1 : g0 0}, {link #2 : g1 0},
3 : local 80, cpu 0 {link #0 : g0 0}, {link #1 : g1 0}, {link #2 : g2 0},
Set parameter WLSAccessID
Set parameter WLSSecret
Set parameter LicenseID
Set parameter TimeLimit to value 200
Set parameter MIPGap to value 0.05
Set parameter LogFile to value "cppsolver.log"
Set parameter Threads to value 40
Academic license - for non-commercial use only - registered to xiaoniu.sxn@sjtu.edu.cn
Gurobi Optimizer version 9.5.1 build v9.5.1rc2 (linux64)
Thread count: 40 physical cores, 80 logical processors, using up to 40 threads
Academic license - for non-commercial use only - registered to xiaoniu.sxn@sjtu.edu.cn
Optimize a model with 5172 rows, 1688 columns and 13884 nonzeros
Model fingerprint: 0x8bba715d
Variable types: 5 continuous, 1683 integer (1683 binary)
Coefficient statistics:
  Matrix range     [2e-09, 1e+02]
  Objective range  [1e+00, 1e+00]
  Bounds range     [1e+00, 1e+00]
  RHS range        [6e-01, 7e+01]
Found heuristic solution: objective 2.000000e+09
Presolve removed 3919 rows and 374 columns
Presolve time: 0.02s
Presolved: 1253 rows, 1314 columns, 5026 nonzeros
Found heuristic solution: objective 3398.4307213
Variable types: 5 continuous, 1309 integer (1309 binary)

Root relaxation: objective 7.661489e+02, 1287 iterations, 0.02 seconds (0.01 work units)

    Nodes    |    Current Node    |     Objective Bounds      |     Work
 Expl Unexpl |  Obj  Depth IntInf | Incumbent    BestBd   Gap | It/Node Time

     0     0  766.14890    0   25 3398.43072  766.14890  77.5%     -    0s
H    0     0                    1006.7530613  766.14890  23.9%     -    0s
H    0     0                     882.5028852  766.14890  13.2%     -    0s
H    0     0                     828.5080127  779.20186  5.95%     -    0s
     0     0  779.20186    0   38  828.50801  779.20186  5.95%     -    0s
H    0     0                     779.2018687  779.20186  0.00%     -    0s

Cutting planes:
  Gomory: 2
  Cover: 1
  StrongCG: 1

Explored 1 nodes (1906 simplex iterations) in 0.10 seconds (0.05 work units)
Thread count was 40 (of 80 available processors)

Solution count 6: 779.202 828.508 882.503 ... 2e+09

Optimal solution found (tolerance 5.00e-02)
Best objective 7.792018686898e+02, best bound 7.792018550421e+02, gap 0.0000%
coll_cache:optimal_local_rate=0.209728,0.23208,0.210687,0.158686,
coll_cache:optimal_remote_rate=0.601453,0.579101,0.600494,0.652496,
coll_cache:optimal_cpu_rate=0.188818,0.188818,0.188818,0.188818,
z=779.202
test_result:init:feat_nbytes=375030526464
test_result:init:cache_nbytes=2625212928
test_result:init:feat_nbytes=375030526464
test_result:init:cache_nbytes=2625212928
test_result:init:feat_nbytes=375030526464
test_result:init:cache_nbytes=2625212928
test_result:init:feat_nbytes=375030526464
test_result:init:cache_nbytes=2625212928
    [Step(average) Profiler Level 1 E3 S135]
        L1  sample           0.003682 | send           0.000000
        L1  recv             0.000000 | copy           0.028857 | convert time 0.000000 | train  0.022387
        L1  feature nbytes    1.51 GB | label nbytes 0.00 Bytes
        L1  id nbytes      0.00 Bytes | graph nbytes 0.00 Bytes
        L1  miss nbytes    0.00 Bytes | remote nbytes 0.00 Bytes
        L1  num nodes               0 | num samples           0
        L1  seq duration     0.000000 | refresh duration   0.000000
    [Step(average) Profiler Level 2 E3 S135]
        L2  shuffle     0.000000 | core sample  0.000000 | id remap        0.000000
        L2  graph copy  0.000000 | id copy      0.000000 | cache feat copy 0.028857
        L2  last layer sample time 0.000000 | size 0.000000
    [Step(average) Profiler Level 3 E3 S135]
        L3  khop sample coo  0.000000 | khop sort coo      0.000000 | khop count edge     0.000000 | khop compact edge 0.000000
        L3  walk sample coo  0.000000 | walk topk total    0.000000 | walk topk step1     0.000000 | walk topk step2   0.000000
        L3  walk topk step3  0.000000 | walk topk step4    0.000000 | walk topk step5     0.000000
        L3  walk topk step6  0.000000 | walk topk step7    0.000000
        L3  remap unique     0.000000 | remap populate     0.000000 | remap mapnode       0.000000 | remap mapedge     0.000000
        L3  cache get_index  0.000745 | cache copy_index   0.000000 | cache extract_miss  0.000000
        L3  cache copy_miss  0.000000 | cache combine_miss 0.000000 | cache combine cache 0.028075 | cache combine remote 0.000000
        L3  label extract  0.000000
    [Profiler Level Percentiles E3 S135]
        p50.00_tail_logl2featcopy=0.028876
        p90.00_tail_logl2featcopy=0.029282
        p95.00_tail_logl2featcopy=0.029448
        p99.00_tail_logl2featcopy=0.029965
        p99.90_tail_logl2featcopy=0.037562
[CUDA] cuda: usage: 12.95 GB
Rank=2, Graph loaded.
!!!!Train_dataloader(with 34 items) enumerate latency: 0.5833384990692139
!!!!Train_data_list(with 34 items) enumerate latency: 5.9604644775390625e-06, transfer latency: 0.5502166748046875
presamping
presamping takes 1.5217711925506592
Rank=3, Graph loaded.
!!!!Train_dataloader(with 34 items) enumerate latency: 0.549487829208374
!!!!Train_data_list(with 34 items) enumerate latency: 6.9141387939453125e-06, transfer latency: 0.5182054042816162
presamping
presamping takes 1.5708870887756348
Rank=1, Graph loaded.
!!!!Train_dataloader(with 34 items) enumerate latency: 0.5594000816345215
!!!!Train_data_list(with 34 items) enumerate latency: 7.152557373046875e-06, transfer latency: 0.5231263637542725
presamping
presamping takes 1.6095266342163086
config:eval_tsp="2023-04-14 20:23:03"
config:num_worker=4
config:num_intra_size=4
config:root_dir=/nvme/songxiaoniu/graph-learning/wholegraph
config:graph_name=mag240m-homo
config:epochs=4
config:batchsize=8000
config:skip_epoch=2
config:local_step=250
config:presc_epoch=2
config:neighbors=10,25
config:hiddensize=256
config:num_layer=2
config:model=sage
config:framework=dgl
config:dataloaderworkers=0
config:dropout=0.5
config:lr=0.003
config:use_nccl=False
config:use_amp=True
config:use_collcache=True
config:cache_percentage=0.006
config:cache_policy=coll_cache_asymm_link
config:omp_thread_num=40
config:unsupervised=False
config:classnum=153
config:global_barrier=<multiprocessing.synchronize.Barrier object at 0x7f7ed6ebe430>
config:worker_id=0
creating_intra_node_communicator root=0, local_size=4, world_size=4
Rank=0, Graph loaded.
!!!!Train_dataloader(with 34 items) enumerate latency: 0.5462067127227783
!!!!Train_data_list(with 34 items) enumerate latency: 6.67572021484375e-06, transfer latency: 0.5101532936096191
epoch=4 total_steps=136
presamping
presamping takes 1.6967442035675049
start training...
[Epoch 0], time=2.9928200244903564, loss=4.943435192108154
[Epoch 1], time=1.869769811630249, loss=4.864427089691162
[Epoch 2], time=1.8695261478424072, loss=4.795435905456543
[Epoch 3], time=1.8695006370544434, loss=4.735146522521973
|===========================================================================|
|                  PyTorch CUDA memory summary, device ID 0                 |
|---------------------------------------------------------------------------|
|            CUDA OOMs: 0            |        cudaMalloc retries: 0         |
|===========================================================================|
|        Metric         | Cur Usage  | Peak Usage | Tot Alloc  | Tot Freed  |
|---------------------------------------------------------------------------|
| Allocated memory      |   94753 KB |  783984 KB |  305558 MB |  305466 MB |
|       from large pool |   83133 KB |  772562 KB |  302586 MB |  302505 MB |
|       from small pool |   11620 KB |   13954 KB |    2972 MB |    2961 MB |
|---------------------------------------------------------------------------|
| Active memory         |   94753 KB |  783984 KB |  305558 MB |  305466 MB |
|       from large pool |   83133 KB |  772562 KB |  302586 MB |  302505 MB |
|       from small pool |   11620 KB |   13954 KB |    2972 MB |    2961 MB |
|---------------------------------------------------------------------------|
| GPU reserved memory   |    2954 MB |    2954 MB |    2954 MB |       0 B  |
|       from large pool |    2936 MB |    2936 MB |    2936 MB |       0 B  |
|       from small pool |      18 MB |      18 MB |      18 MB |       0 B  |
|---------------------------------------------------------------------------|
| Non-releasable memory |   77278 KB |    1084 MB |  247246 MB |  247170 MB |
|       from large pool |   72514 KB |    1081 MB |  244000 MB |  243929 MB |
|       from small pool |    4764 KB |       6 MB |    3245 MB |    3241 MB |
|---------------------------------------------------------------------------|
| Allocations           |      59    |      76    |   22848    |   22789    |
|       from large pool |      15    |      27    |    8939    |    8924    |
|       from small pool |      44    |      51    |   13909    |   13865    |
|---------------------------------------------------------------------------|
| Active allocs         |      59    |      76    |   22848    |   22789    |
|       from large pool |      15    |      27    |    8939    |    8924    |
|       from small pool |      44    |      51    |   13909    |   13865    |
|---------------------------------------------------------------------------|
| GPU reserved segments |      26    |      26    |      26    |       0    |
|       from large pool |      17    |      17    |      17    |       0    |
|       from small pool |       9    |       9    |       9    |       0    |
|---------------------------------------------------------------------------|
| Non-releasable allocs |      26    |      37    |   10237    |   10211    |
|       from large pool |       8    |      18    |    5858    |    5850    |
|       from small pool |      18    |      25    |    4379    |    4361    |
|---------------------------------------------------------------------------|
| Oversize allocations  |       0    |       0    |       0    |       0    |
|---------------------------------------------------------------------------|
| Oversize GPU segments |       0    |       0    |       0    |       0    |
|===========================================================================|

[TRAIN_TIME] train time is 8.609278 seconds
[EPOCH_TIME] 2.152320 seconds, maybe large due to not enough epoch skipped.
[EPOCH_TIME] 1.869616 seconds

